p cnf 368 2816
1 -161 0
1 -162 0
161 -161 0
162 -162 0
21 -169 0
21 -170 0
169 -169 0
170 -170 0
41 -177 0
41 -178 0
177 -177 0
178 -178 0
61 -185 0
61 -186 0
185 -185 0
186 -186 0
81 -193 0
81 -194 0
193 -193 0
194 -194 0
101 -201 0
101 -202 0
201 -201 0
202 -202 0
121 -209 0
121 -210 0
209 -209 0
210 -210 0
141 -217 0
141 -218 0
217 -217 0
218 -218 0
2 -161 0
2 -162 0
161 -161 0
162 -162 0
22 -169 0
22 -170 0
169 -169 0
170 -170 0
42 -177 0
42 -178 0
177 -177 0
178 -178 0
62 -185 0
62 -186 0
185 -185 0
186 -186 0
82 -193 0
82 -194 0
193 -193 0
194 -194 0
102 -201 0
102 -202 0
201 -201 0
202 -202 0
122 -209 0
122 -210 0
209 -209 0
210 -210 0
142 -217 0
142 -218 0
217 -217 0
218 -218 0
3 -225 -161 0
-3 225 -161 0
3 225 -162 0
-3 -225 -162 0
23 -225 -169 0
-23 225 -169 0
23 225 -170 0
-23 -225 -170 0
43 -225 -177 0
-43 225 -177 0
43 225 -178 0
-43 -225 -178 0
63 -225 -185 0
-63 225 -185 0
63 225 -186 0
-63 -225 -186 0
83 -225 -193 0
-83 225 -193 0
83 225 -194 0
-83 -225 -194 0
103 -225 -201 0
-103 225 -201 0
103 225 -202 0
-103 -225 -202 0
123 -225 -209 0
-123 225 -209 0
123 225 -210 0
-123 -225 -210 0
143 -225 -217 0
-143 225 -217 0
143 225 -218 0
-143 -225 -218 0
4 -226 -161 0
-4 226 -161 0
4 226 -162 0
-4 -226 -162 0
24 -226 -169 0
-24 226 -169 0
24 226 -170 0
-24 -226 -170 0
44 -226 -177 0
-44 226 -177 0
44 226 -178 0
-44 -226 -178 0
64 -226 -185 0
-64 226 -185 0
64 226 -186 0
-64 -226 -186 0
84 -226 -193 0
-84 226 -193 0
84 226 -194 0
-84 -226 -194 0
104 -226 -201 0
-104 226 -201 0
104 226 -202 0
-104 -226 -202 0
124 -226 -209 0
-124 226 -209 0
124 226 -210 0
-124 -226 -210 0
144 -226 -217 0
-144 226 -217 0
144 226 -218 0
-144 -226 -218 0
5 -227 -161 0
-5 227 -161 0
5 227 -162 0
-5 -227 -162 0
25 -227 -169 0
-25 227 -169 0
25 227 -170 0
-25 -227 -170 0
45 -227 -177 0
-45 227 -177 0
45 227 -178 0
-45 -227 -178 0
65 -227 -185 0
-65 227 -185 0
65 227 -186 0
-65 -227 -186 0
85 -227 -193 0
-85 227 -193 0
85 227 -194 0
-85 -227 -194 0
105 -227 -201 0
-105 227 -201 0
105 227 -202 0
-105 -227 -202 0
125 -227 -209 0
-125 227 -209 0
125 227 -210 0
-125 -227 -210 0
145 -227 -217 0
-145 227 -217 0
145 227 -218 0
-145 -227 -218 0
6 -161 0
6 -162 0
161 -161 0
162 -162 0
26 -169 0
26 -170 0
169 -169 0
170 -170 0
46 -177 0
46 -178 0
177 -177 0
178 -178 0
66 -185 0
66 -186 0
185 -185 0
186 -186 0
86 -193 0
86 -194 0
193 -193 0
194 -194 0
106 -201 0
106 -202 0
201 -201 0
202 -202 0
126 -209 0
126 -210 0
209 -209 0
210 -210 0
146 -217 0
146 -218 0
217 -217 0
218 -218 0
7 -228 -161 0
-7 228 -161 0
7 228 -162 0
-7 -228 -162 0
27 -228 -169 0
-27 228 -169 0
27 228 -170 0
-27 -228 -170 0
47 -228 -177 0
-47 228 -177 0
47 228 -178 0
-47 -228 -178 0
67 -228 -185 0
-67 228 -185 0
67 228 -186 0
-67 -228 -186 0
87 -228 -193 0
-87 228 -193 0
87 228 -194 0
-87 -228 -194 0
107 -228 -201 0
-107 228 -201 0
107 228 -202 0
-107 -228 -202 0
127 -228 -209 0
-127 228 -209 0
127 228 -210 0
-127 -228 -210 0
147 -228 -217 0
-147 228 -217 0
147 228 -218 0
-147 -228 -218 0
-8 -161 0
-8 -162 0
161 -161 0
162 -162 0
-28 -169 0
-28 -170 0
169 -169 0
170 -170 0
-48 -177 0
-48 -178 0
177 -177 0
178 -178 0
-68 -185 0
-68 -186 0
185 -185 0
186 -186 0
-88 -193 0
-88 -194 0
193 -193 0
194 -194 0
-108 -201 0
-108 -202 0
201 -201 0
202 -202 0
-128 -209 0
-128 -210 0
209 -209 0
210 -210 0
-148 -217 0
-148 -218 0
217 -217 0
218 -218 0
9 -161 0
9 -162 0
161 -161 0
162 -162 0
29 -169 0
29 -170 0
169 -169 0
170 -170 0
49 -177 0
49 -178 0
177 -177 0
178 -178 0
69 -185 0
69 -186 0
185 -185 0
186 -186 0
89 -193 0
89 -194 0
193 -193 0
194 -194 0
109 -201 0
109 -202 0
201 -201 0
202 -202 0
129 -209 0
129 -210 0
209 -209 0
210 -210 0
149 -217 0
149 -218 0
217 -217 0
218 -218 0
10 -161 0
10 -162 0
161 -161 0
162 -162 0
30 -169 0
30 -170 0
169 -169 0
170 -170 0
50 -177 0
50 -178 0
177 -177 0
178 -178 0
70 -185 0
70 -186 0
185 -185 0
186 -186 0
90 -193 0
90 -194 0
193 -193 0
194 -194 0
110 -201 0
110 -202 0
201 -201 0
202 -202 0
130 -209 0
130 -210 0
209 -209 0
210 -210 0
150 -217 0
150 -218 0
217 -217 0
218 -218 0
11 -161 0
11 -162 0
161 -161 0
162 -162 0
31 -169 0
31 -170 0
169 -169 0
170 -170 0
51 -177 0
51 -178 0
177 -177 0
178 -178 0
71 -185 0
71 -186 0
185 -185 0
186 -186 0
91 -193 0
91 -194 0
193 -193 0
194 -194 0
111 -201 0
111 -202 0
201 -201 0
202 -202 0
131 -209 0
131 -210 0
209 -209 0
210 -210 0
151 -217 0
151 -218 0
217 -217 0
218 -218 0
12 -229 -161 0
-12 229 -161 0
12 229 -162 0
-12 -229 -162 0
32 -229 -169 0
-32 229 -169 0
32 229 -170 0
-32 -229 -170 0
52 -229 -177 0
-52 229 -177 0
52 229 -178 0
-52 -229 -178 0
72 -229 -185 0
-72 229 -185 0
72 229 -186 0
-72 -229 -186 0
92 -229 -193 0
-92 229 -193 0
92 229 -194 0
-92 -229 -194 0
112 -229 -201 0
-112 229 -201 0
112 229 -202 0
-112 -229 -202 0
132 -229 -209 0
-132 229 -209 0
132 229 -210 0
-132 -229 -210 0
152 -229 -217 0
-152 229 -217 0
152 229 -218 0
-152 -229 -218 0
13 -230 -161 0
-13 230 -161 0
13 230 -162 0
-13 -230 -162 0
33 -230 -169 0
-33 230 -169 0
33 230 -170 0
-33 -230 -170 0
53 -230 -177 0
-53 230 -177 0
53 230 -178 0
-53 -230 -178 0
73 -230 -185 0
-73 230 -185 0
73 230 -186 0
-73 -230 -186 0
93 -230 -193 0
-93 230 -193 0
93 230 -194 0
-93 -230 -194 0
113 -230 -201 0
-113 230 -201 0
113 230 -202 0
-113 -230 -202 0
133 -230 -209 0
-133 230 -209 0
133 230 -210 0
-133 -230 -210 0
153 -230 -217 0
-153 230 -217 0
153 230 -218 0
-153 -230 -218 0
14 -231 -161 0
-14 231 -161 0
14 231 -162 0
-14 -231 -162 0
34 -231 -169 0
-34 231 -169 0
34 231 -170 0
-34 -231 -170 0
54 -231 -177 0
-54 231 -177 0
54 231 -178 0
-54 -231 -178 0
74 -231 -185 0
-74 231 -185 0
74 231 -186 0
-74 -231 -186 0
94 -231 -193 0
-94 231 -193 0
94 231 -194 0
-94 -231 -194 0
114 -231 -201 0
-114 231 -201 0
114 231 -202 0
-114 -231 -202 0
134 -231 -209 0
-134 231 -209 0
134 231 -210 0
-134 -231 -210 0
154 -231 -217 0
-154 231 -217 0
154 231 -218 0
-154 -231 -218 0
-15 -161 0
-15 -162 0
161 -161 0
162 -162 0
-35 -169 0
-35 -170 0
169 -169 0
170 -170 0
-55 -177 0
-55 -178 0
177 -177 0
178 -178 0
-75 -185 0
-75 -186 0
185 -185 0
186 -186 0
-95 -193 0
-95 -194 0
193 -193 0
194 -194 0
-115 -201 0
-115 -202 0
201 -201 0
202 -202 0
-135 -209 0
-135 -210 0
209 -209 0
210 -210 0
-155 -217 0
-155 -218 0
217 -217 0
218 -218 0
16 -232 -161 0
-16 232 -161 0
16 232 -162 0
-16 -232 -162 0
36 -232 -169 0
-36 232 -169 0
36 232 -170 0
-36 -232 -170 0
56 -232 -177 0
-56 232 -177 0
56 232 -178 0
-56 -232 -178 0
76 -232 -185 0
-76 232 -185 0
76 232 -186 0
-76 -232 -186 0
96 -232 -193 0
-96 232 -193 0
96 232 -194 0
-96 -232 -194 0
116 -232 -201 0
-116 232 -201 0
116 232 -202 0
-116 -232 -202 0
136 -232 -209 0
-136 232 -209 0
136 232 -210 0
-136 -232 -210 0
156 -232 -217 0
-156 232 -217 0
156 232 -218 0
-156 -232 -218 0
17 -161 0
17 -162 0
161 -161 0
162 -162 0
37 -169 0
37 -170 0
169 -169 0
170 -170 0
57 -177 0
57 -178 0
177 -177 0
178 -178 0
77 -185 0
77 -186 0
185 -185 0
186 -186 0
97 -193 0
97 -194 0
193 -193 0
194 -194 0
117 -201 0
117 -202 0
201 -201 0
202 -202 0
137 -209 0
137 -210 0
209 -209 0
210 -210 0
157 -217 0
157 -218 0
217 -217 0
218 -218 0
18 -161 0
18 -162 0
161 -161 0
162 -162 0
38 -169 0
38 -170 0
169 -169 0
170 -170 0
58 -177 0
58 -178 0
177 -177 0
178 -178 0
78 -185 0
78 -186 0
185 -185 0
186 -186 0
98 -193 0
98 -194 0
193 -193 0
194 -194 0
118 -201 0
118 -202 0
201 -201 0
202 -202 0
138 -209 0
138 -210 0
209 -209 0
210 -210 0
158 -217 0
158 -218 0
217 -217 0
218 -218 0
19 -161 0
19 -162 0
161 -161 0
162 -162 0
39 -169 0
39 -170 0
169 -169 0
170 -170 0
59 -177 0
59 -178 0
177 -177 0
178 -178 0
79 -185 0
79 -186 0
185 -185 0
186 -186 0
99 -193 0
99 -194 0
193 -193 0
194 -194 0
119 -201 0
119 -202 0
201 -201 0
202 -202 0
139 -209 0
139 -210 0
209 -209 0
210 -210 0
159 -217 0
159 -218 0
217 -217 0
218 -218 0
20 -161 0
20 -162 0
161 -161 0
162 -162 0
40 -169 0
40 -170 0
169 -169 0
170 -170 0
60 -177 0
60 -178 0
177 -177 0
178 -178 0
80 -185 0
80 -186 0
185 -185 0
186 -186 0
100 -193 0
100 -194 0
193 -193 0
194 -194 0
120 -201 0
120 -202 0
201 -201 0
202 -202 0
140 -209 0
140 -210 0
209 -209 0
210 -210 0
160 -217 0
160 -218 0
217 -217 0
218 -218 0
-305 161 0
305 -161 0
-306 162 0
305 -162 0
-305 -161 0
-306 -162 0
-313 161 305 0
313 -161 0
313 -305 0
-314 162 306 0
314 -162 0
314 -306 0
-313 -169 0
-314 -170 0
-321 169 313 0
321 -169 0
321 -313 0
-322 170 314 0
322 -170 0
322 -314 0
-321 -177 0
-322 -178 0
-329 177 321 0
329 -177 0
329 -321 0
-330 178 322 0
330 -178 0
330 -322 0
-329 -185 0
-330 -186 0
-337 185 329 0
337 -185 0
337 -329 0
-338 186 330 0
338 -186 0
338 -330 0
-337 -193 0
-338 -194 0
-345 193 337 0
345 -193 0
345 -337 0
-346 194 338 0
346 -194 0
346 -338 0
-345 -201 0
-346 -202 0
-353 201 345 0
353 -201 0
353 -345 0
-354 202 346 0
354 -202 0
354 -346 0
-353 -209 0
-354 -210 0
-361 209 353 0
361 -209 0
361 -353 0
-362 210 354 0
362 -210 0
362 -354 0
-361 -217 0
-362 -218 0
361 0
362 0
1 -163 0
1 -164 0
163 -163 0
164 -164 0
21 -171 0
21 -172 0
171 -171 0
172 -172 0
41 -179 0
41 -180 0
179 -179 0
180 -180 0
61 -187 0
61 -188 0
187 -187 0
188 -188 0
81 -195 0
81 -196 0
195 -195 0
196 -196 0
101 -203 0
101 -204 0
203 -203 0
204 -204 0
121 -211 0
121 -212 0
211 -211 0
212 -212 0
141 -219 0
141 -220 0
219 -219 0
220 -220 0
2 -163 0
2 -164 0
163 -163 0
164 -164 0
22 -171 0
22 -172 0
171 -171 0
172 -172 0
42 -179 0
42 -180 0
179 -179 0
180 -180 0
62 -187 0
62 -188 0
187 -187 0
188 -188 0
82 -195 0
82 -196 0
195 -195 0
196 -196 0
102 -203 0
102 -204 0
203 -203 0
204 -204 0
122 -211 0
122 -212 0
211 -211 0
212 -212 0
142 -219 0
142 -220 0
219 -219 0
220 -220 0
3 -233 -163 0
-3 233 -163 0
3 233 -164 0
-3 -233 -164 0
23 -233 -171 0
-23 233 -171 0
23 233 -172 0
-23 -233 -172 0
43 -233 -179 0
-43 233 -179 0
43 233 -180 0
-43 -233 -180 0
63 -233 -187 0
-63 233 -187 0
63 233 -188 0
-63 -233 -188 0
83 -233 -195 0
-83 233 -195 0
83 233 -196 0
-83 -233 -196 0
103 -233 -203 0
-103 233 -203 0
103 233 -204 0
-103 -233 -204 0
123 -233 -211 0
-123 233 -211 0
123 233 -212 0
-123 -233 -212 0
143 -233 -219 0
-143 233 -219 0
143 233 -220 0
-143 -233 -220 0
4 -163 0
4 -164 0
163 -163 0
164 -164 0
24 -171 0
24 -172 0
171 -171 0
172 -172 0
44 -179 0
44 -180 0
179 -179 0
180 -180 0
64 -187 0
64 -188 0
187 -187 0
188 -188 0
84 -195 0
84 -196 0
195 -195 0
196 -196 0
104 -203 0
104 -204 0
203 -203 0
204 -204 0
124 -211 0
124 -212 0
211 -211 0
212 -212 0
144 -219 0
144 -220 0
219 -219 0
220 -220 0
5 -163 0
5 -164 0
163 -163 0
164 -164 0
25 -171 0
25 -172 0
171 -171 0
172 -172 0
45 -179 0
45 -180 0
179 -179 0
180 -180 0
65 -187 0
65 -188 0
187 -187 0
188 -188 0
85 -195 0
85 -196 0
195 -195 0
196 -196 0
105 -203 0
105 -204 0
203 -203 0
204 -204 0
125 -211 0
125 -212 0
211 -211 0
212 -212 0
145 -219 0
145 -220 0
219 -219 0
220 -220 0
6 -163 0
6 -164 0
163 -163 0
164 -164 0
26 -171 0
26 -172 0
171 -171 0
172 -172 0
46 -179 0
46 -180 0
179 -179 0
180 -180 0
66 -187 0
66 -188 0
187 -187 0
188 -188 0
86 -195 0
86 -196 0
195 -195 0
196 -196 0
106 -203 0
106 -204 0
203 -203 0
204 -204 0
126 -211 0
126 -212 0
211 -211 0
212 -212 0
146 -219 0
146 -220 0
219 -219 0
220 -220 0
7 -163 0
7 -164 0
163 -163 0
164 -164 0
27 -171 0
27 -172 0
171 -171 0
172 -172 0
47 -179 0
47 -180 0
179 -179 0
180 -180 0
67 -187 0
67 -188 0
187 -187 0
188 -188 0
87 -195 0
87 -196 0
195 -195 0
196 -196 0
107 -203 0
107 -204 0
203 -203 0
204 -204 0
127 -211 0
127 -212 0
211 -211 0
212 -212 0
147 -219 0
147 -220 0
219 -219 0
220 -220 0
8 -163 0
8 -164 0
163 -163 0
164 -164 0
28 -171 0
28 -172 0
171 -171 0
172 -172 0
48 -179 0
48 -180 0
179 -179 0
180 -180 0
68 -187 0
68 -188 0
187 -187 0
188 -188 0
88 -195 0
88 -196 0
195 -195 0
196 -196 0
108 -203 0
108 -204 0
203 -203 0
204 -204 0
128 -211 0
128 -212 0
211 -211 0
212 -212 0
148 -219 0
148 -220 0
219 -219 0
220 -220 0
-9 -163 0
-9 -164 0
163 -163 0
164 -164 0
-29 -171 0
-29 -172 0
171 -171 0
172 -172 0
-49 -179 0
-49 -180 0
179 -179 0
180 -180 0
-69 -187 0
-69 -188 0
187 -187 0
188 -188 0
-89 -195 0
-89 -196 0
195 -195 0
196 -196 0
-109 -203 0
-109 -204 0
203 -203 0
204 -204 0
-129 -211 0
-129 -212 0
211 -211 0
212 -212 0
-149 -219 0
-149 -220 0
219 -219 0
220 -220 0
10 -163 0
10 -164 0
163 -163 0
164 -164 0
30 -171 0
30 -172 0
171 -171 0
172 -172 0
50 -179 0
50 -180 0
179 -179 0
180 -180 0
70 -187 0
70 -188 0
187 -187 0
188 -188 0
90 -195 0
90 -196 0
195 -195 0
196 -196 0
110 -203 0
110 -204 0
203 -203 0
204 -204 0
130 -211 0
130 -212 0
211 -211 0
212 -212 0
150 -219 0
150 -220 0
219 -219 0
220 -220 0
11 -163 0
11 -164 0
163 -163 0
164 -164 0
31 -171 0
31 -172 0
171 -171 0
172 -172 0
51 -179 0
51 -180 0
179 -179 0
180 -180 0
71 -187 0
71 -188 0
187 -187 0
188 -188 0
91 -195 0
91 -196 0
195 -195 0
196 -196 0
111 -203 0
111 -204 0
203 -203 0
204 -204 0
131 -211 0
131 -212 0
211 -211 0
212 -212 0
151 -219 0
151 -220 0
219 -219 0
220 -220 0
12 -163 0
12 -164 0
163 -163 0
164 -164 0
32 -171 0
32 -172 0
171 -171 0
172 -172 0
52 -179 0
52 -180 0
179 -179 0
180 -180 0
72 -187 0
72 -188 0
187 -187 0
188 -188 0
92 -195 0
92 -196 0
195 -195 0
196 -196 0
112 -203 0
112 -204 0
203 -203 0
204 -204 0
132 -211 0
132 -212 0
211 -211 0
212 -212 0
152 -219 0
152 -220 0
219 -219 0
220 -220 0
13 -163 0
13 -164 0
163 -163 0
164 -164 0
33 -171 0
33 -172 0
171 -171 0
172 -172 0
53 -179 0
53 -180 0
179 -179 0
180 -180 0
73 -187 0
73 -188 0
187 -187 0
188 -188 0
93 -195 0
93 -196 0
195 -195 0
196 -196 0
113 -203 0
113 -204 0
203 -203 0
204 -204 0
133 -211 0
133 -212 0
211 -211 0
212 -212 0
153 -219 0
153 -220 0
219 -219 0
220 -220 0
14 -163 0
14 -164 0
163 -163 0
164 -164 0
34 -171 0
34 -172 0
171 -171 0
172 -172 0
54 -179 0
54 -180 0
179 -179 0
180 -180 0
74 -187 0
74 -188 0
187 -187 0
188 -188 0
94 -195 0
94 -196 0
195 -195 0
196 -196 0
114 -203 0
114 -204 0
203 -203 0
204 -204 0
134 -211 0
134 -212 0
211 -211 0
212 -212 0
154 -219 0
154 -220 0
219 -219 0
220 -220 0
15 -163 0
15 -164 0
163 -163 0
164 -164 0
35 -171 0
35 -172 0
171 -171 0
172 -172 0
55 -179 0
55 -180 0
179 -179 0
180 -180 0
75 -187 0
75 -188 0
187 -187 0
188 -188 0
95 -195 0
95 -196 0
195 -195 0
196 -196 0
115 -203 0
115 -204 0
203 -203 0
204 -204 0
135 -211 0
135 -212 0
211 -211 0
212 -212 0
155 -219 0
155 -220 0
219 -219 0
220 -220 0
16 -163 0
16 -164 0
163 -163 0
164 -164 0
36 -171 0
36 -172 0
171 -171 0
172 -172 0
56 -179 0
56 -180 0
179 -179 0
180 -180 0
76 -187 0
76 -188 0
187 -187 0
188 -188 0
96 -195 0
96 -196 0
195 -195 0
196 -196 0
116 -203 0
116 -204 0
203 -203 0
204 -204 0
136 -211 0
136 -212 0
211 -211 0
212 -212 0
156 -219 0
156 -220 0
219 -219 0
220 -220 0
-17 -163 0
-17 -164 0
163 -163 0
164 -164 0
-37 -171 0
-37 -172 0
171 -171 0
172 -172 0
-57 -179 0
-57 -180 0
179 -179 0
180 -180 0
-77 -187 0
-77 -188 0
187 -187 0
188 -188 0
-97 -195 0
-97 -196 0
195 -195 0
196 -196 0
-117 -203 0
-117 -204 0
203 -203 0
204 -204 0
-137 -211 0
-137 -212 0
211 -211 0
212 -212 0
-157 -219 0
-157 -220 0
219 -219 0
220 -220 0
18 -163 0
18 -164 0
163 -163 0
164 -164 0
38 -171 0
38 -172 0
171 -171 0
172 -172 0
58 -179 0
58 -180 0
179 -179 0
180 -180 0
78 -187 0
78 -188 0
187 -187 0
188 -188 0
98 -195 0
98 -196 0
195 -195 0
196 -196 0
118 -203 0
118 -204 0
203 -203 0
204 -204 0
138 -211 0
138 -212 0
211 -211 0
212 -212 0
158 -219 0
158 -220 0
219 -219 0
220 -220 0
19 -234 -163 0
-19 234 -163 0
19 234 -164 0
-19 -234 -164 0
39 -234 -171 0
-39 234 -171 0
39 234 -172 0
-39 -234 -172 0
59 -234 -179 0
-59 234 -179 0
59 234 -180 0
-59 -234 -180 0
79 -234 -187 0
-79 234 -187 0
79 234 -188 0
-79 -234 -188 0
99 -234 -195 0
-99 234 -195 0
99 234 -196 0
-99 -234 -196 0
119 -234 -203 0
-119 234 -203 0
119 234 -204 0
-119 -234 -204 0
139 -234 -211 0
-139 234 -211 0
139 234 -212 0
-139 -234 -212 0
159 -234 -219 0
-159 234 -219 0
159 234 -220 0
-159 -234 -220 0
20 -235 -163 0
-20 235 -163 0
20 235 -164 0
-20 -235 -164 0
40 -235 -171 0
-40 235 -171 0
40 235 -172 0
-40 -235 -172 0
60 -235 -179 0
-60 235 -179 0
60 235 -180 0
-60 -235 -180 0
80 -235 -187 0
-80 235 -187 0
80 235 -188 0
-80 -235 -188 0
100 -235 -195 0
-100 235 -195 0
100 235 -196 0
-100 -235 -196 0
120 -235 -203 0
-120 235 -203 0
120 235 -204 0
-120 -235 -204 0
140 -235 -211 0
-140 235 -211 0
140 235 -212 0
-140 -235 -212 0
160 -235 -219 0
-160 235 -219 0
160 235 -220 0
-160 -235 -220 0
-307 163 0
307 -163 0
-308 164 0
307 -164 0
-307 -163 0
-308 -164 0
-315 163 307 0
315 -163 0
315 -307 0
-316 164 308 0
316 -164 0
316 -308 0
-315 -171 0
-316 -172 0
-323 171 315 0
323 -171 0
323 -315 0
-324 172 316 0
324 -172 0
324 -316 0
-323 -179 0
-324 -180 0
-331 179 323 0
331 -179 0
331 -323 0
-332 180 324 0
332 -180 0
332 -324 0
-331 -187 0
-332 -188 0
-339 187 331 0
339 -187 0
339 -331 0
-340 188 332 0
340 -188 0
340 -332 0
-339 -195 0
-340 -196 0
-347 195 339 0
347 -195 0
347 -339 0
-348 196 340 0
348 -196 0
348 -340 0
-347 -203 0
-348 -204 0
-355 203 347 0
355 -203 0
355 -347 0
-356 204 348 0
356 -204 0
356 -348 0
-355 -211 0
-356 -212 0
-363 211 355 0
363 -211 0
363 -355 0
-364 212 356 0
364 -212 0
364 -356 0
-363 -219 0
-364 -220 0
363 0
364 0
1 -165 0
1 -166 0
165 -165 0
166 -166 0
21 -173 0
21 -174 0
173 -173 0
174 -174 0
41 -181 0
41 -182 0
181 -181 0
182 -182 0
61 -189 0
61 -190 0
189 -189 0
190 -190 0
81 -197 0
81 -198 0
197 -197 0
198 -198 0
101 -205 0
101 -206 0
205 -205 0
206 -206 0
121 -213 0
121 -214 0
213 -213 0
214 -214 0
141 -221 0
141 -222 0
221 -221 0
222 -222 0
2 -165 0
2 -166 0
165 -165 0
166 -166 0
22 -173 0
22 -174 0
173 -173 0
174 -174 0
42 -181 0
42 -182 0
181 -181 0
182 -182 0
62 -189 0
62 -190 0
189 -189 0
190 -190 0
82 -197 0
82 -198 0
197 -197 0
198 -198 0
102 -205 0
102 -206 0
205 -205 0
206 -206 0
122 -213 0
122 -214 0
213 -213 0
214 -214 0
142 -221 0
142 -222 0
221 -221 0
222 -222 0
-3 -165 0
-3 -166 0
165 -165 0
166 -166 0
-23 -173 0
-23 -174 0
173 -173 0
174 -174 0
-43 -181 0
-43 -182 0
181 -181 0
182 -182 0
-63 -189 0
-63 -190 0
189 -189 0
190 -190 0
-83 -197 0
-83 -198 0
197 -197 0
198 -198 0
-103 -205 0
-103 -206 0
205 -205 0
206 -206 0
-123 -213 0
-123 -214 0
213 -213 0
214 -214 0
-143 -221 0
-143 -222 0
221 -221 0
222 -222 0
4 -236 -165 0
-4 236 -165 0
4 236 -166 0
-4 -236 -166 0
24 -236 -173 0
-24 236 -173 0
24 236 -174 0
-24 -236 -174 0
44 -236 -181 0
-44 236 -181 0
44 236 -182 0
-44 -236 -182 0
64 -236 -189 0
-64 236 -189 0
64 236 -190 0
-64 -236 -190 0
84 -236 -197 0
-84 236 -197 0
84 236 -198 0
-84 -236 -198 0
104 -236 -205 0
-104 236 -205 0
104 236 -206 0
-104 -236 -206 0
124 -236 -213 0
-124 236 -213 0
124 236 -214 0
-124 -236 -214 0
144 -236 -221 0
-144 236 -221 0
144 236 -222 0
-144 -236 -222 0
5 -237 -165 0
-5 237 -165 0
5 237 -166 0
-5 -237 -166 0
25 -237 -173 0
-25 237 -173 0
25 237 -174 0
-25 -237 -174 0
45 -237 -181 0
-45 237 -181 0
45 237 -182 0
-45 -237 -182 0
65 -237 -189 0
-65 237 -189 0
65 237 -190 0
-65 -237 -190 0
85 -237 -197 0
-85 237 -197 0
85 237 -198 0
-85 -237 -198 0
105 -237 -205 0
-105 237 -205 0
105 237 -206 0
-105 -237 -206 0
125 -237 -213 0
-125 237 -213 0
125 237 -214 0
-125 -237 -214 0
145 -237 -221 0
-145 237 -221 0
145 237 -222 0
-145 -237 -222 0
6 -165 0
6 -166 0
165 -165 0
166 -166 0
26 -173 0
26 -174 0
173 -173 0
174 -174 0
46 -181 0
46 -182 0
181 -181 0
182 -182 0
66 -189 0
66 -190 0
189 -189 0
190 -190 0
86 -197 0
86 -198 0
197 -197 0
198 -198 0
106 -205 0
106 -206 0
205 -205 0
206 -206 0
126 -213 0
126 -214 0
213 -213 0
214 -214 0
146 -221 0
146 -222 0
221 -221 0
222 -222 0
7 -165 0
7 -166 0
165 -165 0
166 -166 0
27 -173 0
27 -174 0
173 -173 0
174 -174 0
47 -181 0
47 -182 0
181 -181 0
182 -182 0
67 -189 0
67 -190 0
189 -189 0
190 -190 0
87 -197 0
87 -198 0
197 -197 0
198 -198 0
107 -205 0
107 -206 0
205 -205 0
206 -206 0
127 -213 0
127 -214 0
213 -213 0
214 -214 0
147 -221 0
147 -222 0
221 -221 0
222 -222 0
8 -165 0
8 -166 0
165 -165 0
166 -166 0
28 -173 0
28 -174 0
173 -173 0
174 -174 0
48 -181 0
48 -182 0
181 -181 0
182 -182 0
68 -189 0
68 -190 0
189 -189 0
190 -190 0
88 -197 0
88 -198 0
197 -197 0
198 -198 0
108 -205 0
108 -206 0
205 -205 0
206 -206 0
128 -213 0
128 -214 0
213 -213 0
214 -214 0
148 -221 0
148 -222 0
221 -221 0
222 -222 0
-9 -165 0
-9 -166 0
165 -165 0
166 -166 0
-29 -173 0
-29 -174 0
173 -173 0
174 -174 0
-49 -181 0
-49 -182 0
181 -181 0
182 -182 0
-69 -189 0
-69 -190 0
189 -189 0
190 -190 0
-89 -197 0
-89 -198 0
197 -197 0
198 -198 0
-109 -205 0
-109 -206 0
205 -205 0
206 -206 0
-129 -213 0
-129 -214 0
213 -213 0
214 -214 0
-149 -221 0
-149 -222 0
221 -221 0
222 -222 0
10 -165 0
10 -166 0
165 -165 0
166 -166 0
30 -173 0
30 -174 0
173 -173 0
174 -174 0
50 -181 0
50 -182 0
181 -181 0
182 -182 0
70 -189 0
70 -190 0
189 -189 0
190 -190 0
90 -197 0
90 -198 0
197 -197 0
198 -198 0
110 -205 0
110 -206 0
205 -205 0
206 -206 0
130 -213 0
130 -214 0
213 -213 0
214 -214 0
150 -221 0
150 -222 0
221 -221 0
222 -222 0
11 -165 0
11 -166 0
165 -165 0
166 -166 0
31 -173 0
31 -174 0
173 -173 0
174 -174 0
51 -181 0
51 -182 0
181 -181 0
182 -182 0
71 -189 0
71 -190 0
189 -189 0
190 -190 0
91 -197 0
91 -198 0
197 -197 0
198 -198 0
111 -205 0
111 -206 0
205 -205 0
206 -206 0
131 -213 0
131 -214 0
213 -213 0
214 -214 0
151 -221 0
151 -222 0
221 -221 0
222 -222 0
12 -165 0
12 -166 0
165 -165 0
166 -166 0
32 -173 0
32 -174 0
173 -173 0
174 -174 0
52 -181 0
52 -182 0
181 -181 0
182 -182 0
72 -189 0
72 -190 0
189 -189 0
190 -190 0
92 -197 0
92 -198 0
197 -197 0
198 -198 0
112 -205 0
112 -206 0
205 -205 0
206 -206 0
132 -213 0
132 -214 0
213 -213 0
214 -214 0
152 -221 0
152 -222 0
221 -221 0
222 -222 0
13 -165 0
13 -166 0
165 -165 0
166 -166 0
33 -173 0
33 -174 0
173 -173 0
174 -174 0
53 -181 0
53 -182 0
181 -181 0
182 -182 0
73 -189 0
73 -190 0
189 -189 0
190 -190 0
93 -197 0
93 -198 0
197 -197 0
198 -198 0
113 -205 0
113 -206 0
205 -205 0
206 -206 0
133 -213 0
133 -214 0
213 -213 0
214 -214 0
153 -221 0
153 -222 0
221 -221 0
222 -222 0
14 -165 0
14 -166 0
165 -165 0
166 -166 0
34 -173 0
34 -174 0
173 -173 0
174 -174 0
54 -181 0
54 -182 0
181 -181 0
182 -182 0
74 -189 0
74 -190 0
189 -189 0
190 -190 0
94 -197 0
94 -198 0
197 -197 0
198 -198 0
114 -205 0
114 -206 0
205 -205 0
206 -206 0
134 -213 0
134 -214 0
213 -213 0
214 -214 0
154 -221 0
154 -222 0
221 -221 0
222 -222 0
15 -165 0
15 -166 0
165 -165 0
166 -166 0
35 -173 0
35 -174 0
173 -173 0
174 -174 0
55 -181 0
55 -182 0
181 -181 0
182 -182 0
75 -189 0
75 -190 0
189 -189 0
190 -190 0
95 -197 0
95 -198 0
197 -197 0
198 -198 0
115 -205 0
115 -206 0
205 -205 0
206 -206 0
135 -213 0
135 -214 0
213 -213 0
214 -214 0
155 -221 0
155 -222 0
221 -221 0
222 -222 0
16 -165 0
16 -166 0
165 -165 0
166 -166 0
36 -173 0
36 -174 0
173 -173 0
174 -174 0
56 -181 0
56 -182 0
181 -181 0
182 -182 0
76 -189 0
76 -190 0
189 -189 0
190 -190 0
96 -197 0
96 -198 0
197 -197 0
198 -198 0
116 -205 0
116 -206 0
205 -205 0
206 -206 0
136 -213 0
136 -214 0
213 -213 0
214 -214 0
156 -221 0
156 -222 0
221 -221 0
222 -222 0
-17 -165 0
-17 -166 0
165 -165 0
166 -166 0
-37 -173 0
-37 -174 0
173 -173 0
174 -174 0
-57 -181 0
-57 -182 0
181 -181 0
182 -182 0
-77 -189 0
-77 -190 0
189 -189 0
190 -190 0
-97 -197 0
-97 -198 0
197 -197 0
198 -198 0
-117 -205 0
-117 -206 0
205 -205 0
206 -206 0
-137 -213 0
-137 -214 0
213 -213 0
214 -214 0
-157 -221 0
-157 -222 0
221 -221 0
222 -222 0
18 -165 0
18 -166 0
165 -165 0
166 -166 0
38 -173 0
38 -174 0
173 -173 0
174 -174 0
58 -181 0
58 -182 0
181 -181 0
182 -182 0
78 -189 0
78 -190 0
189 -189 0
190 -190 0
98 -197 0
98 -198 0
197 -197 0
198 -198 0
118 -205 0
118 -206 0
205 -205 0
206 -206 0
138 -213 0
138 -214 0
213 -213 0
214 -214 0
158 -221 0
158 -222 0
221 -221 0
222 -222 0
-19 -165 0
-19 -166 0
165 -165 0
166 -166 0
-39 -173 0
-39 -174 0
173 -173 0
174 -174 0
-59 -181 0
-59 -182 0
181 -181 0
182 -182 0
-79 -189 0
-79 -190 0
189 -189 0
190 -190 0
-99 -197 0
-99 -198 0
197 -197 0
198 -198 0
-119 -205 0
-119 -206 0
205 -205 0
206 -206 0
-139 -213 0
-139 -214 0
213 -213 0
214 -214 0
-159 -221 0
-159 -222 0
221 -221 0
222 -222 0
-20 -165 0
-20 -166 0
165 -165 0
166 -166 0
-40 -173 0
-40 -174 0
173 -173 0
174 -174 0
-60 -181 0
-60 -182 0
181 -181 0
182 -182 0
-80 -189 0
-80 -190 0
189 -189 0
190 -190 0
-100 -197 0
-100 -198 0
197 -197 0
198 -198 0
-120 -205 0
-120 -206 0
205 -205 0
206 -206 0
-140 -213 0
-140 -214 0
213 -213 0
214 -214 0
-160 -221 0
-160 -222 0
221 -221 0
222 -222 0
-309 165 0
309 -165 0
-310 166 0
309 -166 0
-309 -165 0
-310 -166 0
-317 165 309 0
317 -165 0
317 -309 0
-318 166 310 0
318 -166 0
318 -310 0
-317 -173 0
-318 -174 0
-325 173 317 0
325 -173 0
325 -317 0
-326 174 318 0
326 -174 0
326 -318 0
-325 -181 0
-326 -182 0
-333 181 325 0
333 -181 0
333 -325 0
-334 182 326 0
334 -182 0
334 -326 0
-333 -189 0
-334 -190 0
-341 189 333 0
341 -189 0
341 -333 0
-342 190 334 0
342 -190 0
342 -334 0
-341 -197 0
-342 -198 0
-349 197 341 0
349 -197 0
349 -341 0
-350 198 342 0
350 -198 0
350 -342 0
-349 -205 0
-350 -206 0
-357 205 349 0
357 -205 0
357 -349 0
-358 206 350 0
358 -206 0
358 -350 0
-357 -213 0
-358 -214 0
-365 213 357 0
365 -213 0
365 -357 0
-366 214 358 0
366 -214 0
366 -358 0
-365 -221 0
-366 -222 0
365 0
366 0
1 -238 -167 0
-1 238 -167 0
1 238 -168 0
-1 -238 -168 0
21 -238 -175 0
-21 238 -175 0
21 238 -176 0
-21 -238 -176 0
41 -238 -183 0
-41 238 -183 0
41 238 -184 0
-41 -238 -184 0
61 -238 -191 0
-61 238 -191 0
61 238 -192 0
-61 -238 -192 0
81 -238 -199 0
-81 238 -199 0
81 238 -200 0
-81 -238 -200 0
101 -238 -207 0
-101 238 -207 0
101 238 -208 0
-101 -238 -208 0
121 -238 -215 0
-121 238 -215 0
121 238 -216 0
-121 -238 -216 0
141 -238 -223 0
-141 238 -223 0
141 238 -224 0
-141 -238 -224 0
2 -239 -167 0
-2 239 -167 0
2 239 -168 0
-2 -239 -168 0
22 -239 -175 0
-22 239 -175 0
22 239 -176 0
-22 -239 -176 0
42 -239 -183 0
-42 239 -183 0
42 239 -184 0
-42 -239 -184 0
62 -239 -191 0
-62 239 -191 0
62 239 -192 0
-62 -239 -192 0
82 -239 -199 0
-82 239 -199 0
82 239 -200 0
-82 -239 -200 0
102 -239 -207 0
-102 239 -207 0
102 239 -208 0
-102 -239 -208 0
122 -239 -215 0
-122 239 -215 0
122 239 -216 0
-122 -239 -216 0
142 -239 -223 0
-142 239 -223 0
142 239 -224 0
-142 -239 -224 0
3 -167 0
3 -168 0
167 -167 0
168 -168 0
23 -175 0
23 -176 0
175 -175 0
176 -176 0
43 -183 0
43 -184 0
183 -183 0
184 -184 0
63 -191 0
63 -192 0
191 -191 0
192 -192 0
83 -199 0
83 -200 0
199 -199 0
200 -200 0
103 -207 0
103 -208 0
207 -207 0
208 -208 0
123 -215 0
123 -216 0
215 -215 0
216 -216 0
143 -223 0
143 -224 0
223 -223 0
224 -224 0
4 -167 0
4 -168 0
167 -167 0
168 -168 0
24 -175 0
24 -176 0
175 -175 0
176 -176 0
44 -183 0
44 -184 0
183 -183 0
184 -184 0
64 -191 0
64 -192 0
191 -191 0
192 -192 0
84 -199 0
84 -200 0
199 -199 0
200 -200 0
104 -207 0
104 -208 0
207 -207 0
208 -208 0
124 -215 0
124 -216 0
215 -215 0
216 -216 0
144 -223 0
144 -224 0
223 -223 0
224 -224 0
5 -167 0
5 -168 0
167 -167 0
168 -168 0
25 -175 0
25 -176 0
175 -175 0
176 -176 0
45 -183 0
45 -184 0
183 -183 0
184 -184 0
65 -191 0
65 -192 0
191 -191 0
192 -192 0
85 -199 0
85 -200 0
199 -199 0
200 -200 0
105 -207 0
105 -208 0
207 -207 0
208 -208 0
125 -215 0
125 -216 0
215 -215 0
216 -216 0
145 -223 0
145 -224 0
223 -223 0
224 -224 0
6 -167 0
6 -168 0
167 -167 0
168 -168 0
26 -175 0
26 -176 0
175 -175 0
176 -176 0
46 -183 0
46 -184 0
183 -183 0
184 -184 0
66 -191 0
66 -192 0
191 -191 0
192 -192 0
86 -199 0
86 -200 0
199 -199 0
200 -200 0
106 -207 0
106 -208 0
207 -207 0
208 -208 0
126 -215 0
126 -216 0
215 -215 0
216 -216 0
146 -223 0
146 -224 0
223 -223 0
224 -224 0
-7 -167 0
-7 -168 0
167 -167 0
168 -168 0
-27 -175 0
-27 -176 0
175 -175 0
176 -176 0
-47 -183 0
-47 -184 0
183 -183 0
184 -184 0
-67 -191 0
-67 -192 0
191 -191 0
192 -192 0
-87 -199 0
-87 -200 0
199 -199 0
200 -200 0
-107 -207 0
-107 -208 0
207 -207 0
208 -208 0
-127 -215 0
-127 -216 0
215 -215 0
216 -216 0
-147 -223 0
-147 -224 0
223 -223 0
224 -224 0
-8 -167 0
-8 -168 0
167 -167 0
168 -168 0
-28 -175 0
-28 -176 0
175 -175 0
176 -176 0
-48 -183 0
-48 -184 0
183 -183 0
184 -184 0
-68 -191 0
-68 -192 0
191 -191 0
192 -192 0
-88 -199 0
-88 -200 0
199 -199 0
200 -200 0
-108 -207 0
-108 -208 0
207 -207 0
208 -208 0
-128 -215 0
-128 -216 0
215 -215 0
216 -216 0
-148 -223 0
-148 -224 0
223 -223 0
224 -224 0
9 -167 0
9 -168 0
167 -167 0
168 -168 0
29 -175 0
29 -176 0
175 -175 0
176 -176 0
49 -183 0
49 -184 0
183 -183 0
184 -184 0
69 -191 0
69 -192 0
191 -191 0
192 -192 0
89 -199 0
89 -200 0
199 -199 0
200 -200 0
109 -207 0
109 -208 0
207 -207 0
208 -208 0
129 -215 0
129 -216 0
215 -215 0
216 -216 0
149 -223 0
149 -224 0
223 -223 0
224 -224 0
10 -167 0
10 -168 0
167 -167 0
168 -168 0
30 -175 0
30 -176 0
175 -175 0
176 -176 0
50 -183 0
50 -184 0
183 -183 0
184 -184 0
70 -191 0
70 -192 0
191 -191 0
192 -192 0
90 -199 0
90 -200 0
199 -199 0
200 -200 0
110 -207 0
110 -208 0
207 -207 0
208 -208 0
130 -215 0
130 -216 0
215 -215 0
216 -216 0
150 -223 0
150 -224 0
223 -223 0
224 -224 0
11 -240 -167 0
-11 240 -167 0
11 240 -168 0
-11 -240 -168 0
31 -240 -175 0
-31 240 -175 0
31 240 -176 0
-31 -240 -176 0
51 -240 -183 0
-51 240 -183 0
51 240 -184 0
-51 -240 -184 0
71 -240 -191 0
-71 240 -191 0
71 240 -192 0
-71 -240 -192 0
91 -240 -199 0
-91 240 -199 0
91 240 -200 0
-91 -240 -200 0
111 -240 -207 0
-111 240 -207 0
111 240 -208 0
-111 -240 -208 0
131 -240 -215 0
-131 240 -215 0
131 240 -216 0
-131 -240 -216 0
151 -240 -223 0
-151 240 -223 0
151 240 -224 0
-151 -240 -224 0
12 -167 0
12 -168 0
167 -167 0
168 -168 0
32 -175 0
32 -176 0
175 -175 0
176 -176 0
52 -183 0
52 -184 0
183 -183 0
184 -184 0
72 -191 0
72 -192 0
191 -191 0
192 -192 0
92 -199 0
92 -200 0
199 -199 0
200 -200 0
112 -207 0
112 -208 0
207 -207 0
208 -208 0
132 -215 0
132 -216 0
215 -215 0
216 -216 0
152 -223 0
152 -224 0
223 -223 0
224 -224 0
-13 -167 0
-13 -168 0
167 -167 0
168 -168 0
-33 -175 0
-33 -176 0
175 -175 0
176 -176 0
-53 -183 0
-53 -184 0
183 -183 0
184 -184 0
-73 -191 0
-73 -192 0
191 -191 0
192 -192 0
-93 -199 0
-93 -200 0
199 -199 0
200 -200 0
-113 -207 0
-113 -208 0
207 -207 0
208 -208 0
-133 -215 0
-133 -216 0
215 -215 0
216 -216 0
-153 -223 0
-153 -224 0
223 -223 0
224 -224 0
-14 -167 0
-14 -168 0
167 -167 0
168 -168 0
-34 -175 0
-34 -176 0
175 -175 0
176 -176 0
-54 -183 0
-54 -184 0
183 -183 0
184 -184 0
-74 -191 0
-74 -192 0
191 -191 0
192 -192 0
-94 -199 0
-94 -200 0
199 -199 0
200 -200 0
-114 -207 0
-114 -208 0
207 -207 0
208 -208 0
-134 -215 0
-134 -216 0
215 -215 0
216 -216 0
-154 -223 0
-154 -224 0
223 -223 0
224 -224 0
-15 -167 0
-15 -168 0
167 -167 0
168 -168 0
-35 -175 0
-35 -176 0
175 -175 0
176 -176 0
-55 -183 0
-55 -184 0
183 -183 0
184 -184 0
-75 -191 0
-75 -192 0
191 -191 0
192 -192 0
-95 -199 0
-95 -200 0
199 -199 0
200 -200 0
-115 -207 0
-115 -208 0
207 -207 0
208 -208 0
-135 -215 0
-135 -216 0
215 -215 0
216 -216 0
-155 -223 0
-155 -224 0
223 -223 0
224 -224 0
-16 -167 0
-16 -168 0
167 -167 0
168 -168 0
-36 -175 0
-36 -176 0
175 -175 0
176 -176 0
-56 -183 0
-56 -184 0
183 -183 0
184 -184 0
-76 -191 0
-76 -192 0
191 -191 0
192 -192 0
-96 -199 0
-96 -200 0
199 -199 0
200 -200 0
-116 -207 0
-116 -208 0
207 -207 0
208 -208 0
-136 -215 0
-136 -216 0
215 -215 0
216 -216 0
-156 -223 0
-156 -224 0
223 -223 0
224 -224 0
17 -167 0
17 -168 0
167 -167 0
168 -168 0
37 -175 0
37 -176 0
175 -175 0
176 -176 0
57 -183 0
57 -184 0
183 -183 0
184 -184 0
77 -191 0
77 -192 0
191 -191 0
192 -192 0
97 -199 0
97 -200 0
199 -199 0
200 -200 0
117 -207 0
117 -208 0
207 -207 0
208 -208 0
137 -215 0
137 -216 0
215 -215 0
216 -216 0
157 -223 0
157 -224 0
223 -223 0
224 -224 0
18 -241 -167 0
-18 241 -167 0
18 241 -168 0
-18 -241 -168 0
38 -241 -175 0
-38 241 -175 0
38 241 -176 0
-38 -241 -176 0
58 -241 -183 0
-58 241 -183 0
58 241 -184 0
-58 -241 -184 0
78 -241 -191 0
-78 241 -191 0
78 241 -192 0
-78 -241 -192 0
98 -241 -199 0
-98 241 -199 0
98 241 -200 0
-98 -241 -200 0
118 -241 -207 0
-118 241 -207 0
118 241 -208 0
-118 -241 -208 0
138 -241 -215 0
-138 241 -215 0
138 241 -216 0
-138 -241 -216 0
158 -241 -223 0
-158 241 -223 0
158 241 -224 0
-158 -241 -224 0
19 -167 0
19 -168 0
167 -167 0
168 -168 0
39 -175 0
39 -176 0
175 -175 0
176 -176 0
59 -183 0
59 -184 0
183 -183 0
184 -184 0
79 -191 0
79 -192 0
191 -191 0
192 -192 0
99 -199 0
99 -200 0
199 -199 0
200 -200 0
119 -207 0
119 -208 0
207 -207 0
208 -208 0
139 -215 0
139 -216 0
215 -215 0
216 -216 0
159 -223 0
159 -224 0
223 -223 0
224 -224 0
20 -167 0
20 -168 0
167 -167 0
168 -168 0
40 -175 0
40 -176 0
175 -175 0
176 -176 0
60 -183 0
60 -184 0
183 -183 0
184 -184 0
80 -191 0
80 -192 0
191 -191 0
192 -192 0
100 -199 0
100 -200 0
199 -199 0
200 -200 0
120 -207 0
120 -208 0
207 -207 0
208 -208 0
140 -215 0
140 -216 0
215 -215 0
216 -216 0
160 -223 0
160 -224 0
223 -223 0
224 -224 0
-311 167 0
311 -167 0
-312 168 0
311 -168 0
-311 -167 0
-312 -168 0
-319 167 311 0
319 -167 0
319 -311 0
-320 168 312 0
320 -168 0
320 -312 0
-319 -175 0
-320 -176 0
-327 175 319 0
327 -175 0
327 -319 0
-328 176 320 0
328 -176 0
328 -320 0
-327 -183 0
-328 -184 0
-335 183 327 0
335 -183 0
335 -327 0
-336 184 328 0
336 -184 0
336 -328 0
-335 -191 0
-336 -192 0
-343 191 335 0
343 -191 0
343 -335 0
-344 192 336 0
344 -192 0
344 -336 0
-343 -199 0
-344 -200 0
-351 199 343 0
351 -199 0
351 -343 0
-352 200 344 0
352 -200 0
352 -344 0
-351 -207 0
-352 -208 0
-359 207 351 0
359 -207 0
359 -351 0
-360 208 352 0
360 -208 0
360 -352 0
-359 -215 0
-360 -216 0
-367 215 359 0
367 -215 0
367 -359 0
-368 216 360 0
368 -216 0
368 -360 0
-367 -223 0
-368 -224 0
367 0
368 0
